POSCAR                                  
   1.00000000000000     
    20.0000000000000000    0.0000000000000000    0.0000000000000000
     0.0000000000000000   20.0000000000000000    0.0000000000000000
     0.0000000000000000    0.0000000000000000   20.0000000000000000
   Co   O 
     1     6
Direct
  0.5072194144890005  0.4902465132520035  0.5181343753230010
  0.5250609366415374  0.5750781475324011  0.4954927574409791
  0.4953690877132969  0.5311879457299039  0.5969844573658938
  0.5190697306127022  0.4493050814990983  0.4392842946271057
  0.4893778669084628  0.4054148734796009  0.5407759893370275
  0.5945265554785706  0.4774868151945444  0.5380085198110779
  0.4199122444994243  0.5030062067534555  0.4982602344199246
 
  0.00000000E+00  0.00000000E+00  0.00000000E+00
  0.00000000E+00  0.00000000E+00  0.00000000E+00
  0.00000000E+00  0.00000000E+00  0.00000000E+00
  0.00000000E+00  0.00000000E+00  0.00000000E+00
  0.00000000E+00  0.00000000E+00  0.00000000E+00
  0.00000000E+00  0.00000000E+00  0.00000000E+00
  0.00000000E+00  0.00000000E+00  0.00000000E+00
