POSCAR                                  
   1.00000000000000     
    20.0000000000000000    0.0000000000000000    0.0000000000000000
     0.0000000000000000   20.0000000000000000    0.0000000000000000
     0.0000000000000000    0.0000000000000000   20.0000000000000000
   Cu   O 
     1     6
Direct
0.5427576315600007 0.4878466636030012 0.5180550344690005
0.5460036788812346 0.5728860439789392 0.4826471341098658
0.5127023142768964 0.5213378478784435 0.5985023786394165
0.5728099085321047 0.4543515577675579 0.4376080912095828
0.5395160693087604 0.4028099604730651 0.5534647373501357
0.4564211785449322 0.5190932860933241 0.5072806665210040
0.6290978060330695 0.4565988967686809 0.5288287650870001
 
  0.00000000E+00  0.00000000E+00  0.00000000E+00
  0.00000000E+00  0.00000000E+00  0.00000000E+00
  0.00000000E+00  0.00000000E+00  0.00000000E+00
  0.00000000E+00  0.00000000E+00  0.00000000E+00
  0.00000000E+00  0.00000000E+00  0.00000000E+00
  0.00000000E+00  0.00000000E+00  0.00000000E+00
  0.00000000E+00  0.00000000E+00  0.00000000E+00
