POSCAR                                  
   1.00000000000000     
    20.0000000000000000    0.0000000000000000    0.0000000000000000
     0.0000000000000000   20.0000000000000000    0.0000000000000000
     0.0000000000000000    0.0000000000000000   20.0000000000000000
   Fe   O 
     1     6
Direct
  0.5127777246379992  0.5026823281040009  0.5225227827859982
  0.5429264481307955  0.5796435344000240  0.4851574778956382
  0.4980206384898293  0.5261403975956194  0.6095276870694757
  0.5275310218491686  0.4792195038343855  0.4355184083645202
  0.4826342021402080  0.4257242174039783  0.5598902821643553
  0.6022960313316850  0.5004916230464487  0.5404080772559684
  0.4232634740203142  0.5048716239175464  0.5046367029510318
 
  0.00000000E+00  0.00000000E+00  0.00000000E+00
  0.00000000E+00  0.00000000E+00  0.00000000E+00
  0.00000000E+00  0.00000000E+00  0.00000000E+00
  0.00000000E+00  0.00000000E+00  0.00000000E+00
  0.00000000E+00  0.00000000E+00  0.00000000E+00
  0.00000000E+00  0.00000000E+00  0.00000000E+00
  0.00000000E+00  0.00000000E+00  0.00000000E+00
