POSCAR                                  
   1.00000000000000     
    20.0000000000000000    0.0000000000000000    0.0000000000000000
     0.0000000000000000   20.0000000000000000    0.0000000000000000
     0.0000000000000000    0.0000000000000000   20.0000000000000000
   Ni   O 
     1     6
Direct
  0.5177373111829979  0.5097938110350029  0.5238748590089983
  0.5448875762707062  0.5974776611160839  0.5125484335252992
  0.5202300788460629  0.5507786484179746  0.6065937763449901
  0.5152414646239326  0.4688053126780289  0.4411562945470103
  0.4905915387112966  0.4221123913379153  0.5352031914127023
  0.6059094404885544  0.5174015536155918  0.5505078061699560
  0.4295686547054398  0.5021852625394064  0.4972410154150471
 
  0.00000000E+00  0.00000000E+00  0.00000000E+00
  0.00000000E+00  0.00000000E+00  0.00000000E+00
  0.00000000E+00  0.00000000E+00  0.00000000E+00
  0.00000000E+00  0.00000000E+00  0.00000000E+00
  0.00000000E+00  0.00000000E+00  0.00000000E+00
  0.00000000E+00  0.00000000E+00  0.00000000E+00
  0.00000000E+00  0.00000000E+00  0.00000000E+00
