POSCAR                                  
   1.00000000000000     
    30.0000000000000000    0.0000000000000000    0.0000000000000000
     0.0000000000000000   30.0000000000000000    0.0000000000000000
     0.0000000000000000    0.0000000000000000   30.0000000000000000
   H    C    O 
    18     9     1
Selective dynamics
Direct
  0.3783341743737850  0.4973312676570455  0.3528711250519485   T   T   T
  0.3614034587166087  0.4584560486923976  0.3937304646782642   T   T   T
  0.3752311187749954  0.4390317114526224  0.3387779193848860   T   T   T
  0.5010610431041217  0.5113624969333851  0.4891708740708672   T   T   T
  0.5124702004775606  0.5503204607624362  0.4466037113432357   T   T   T
  0.5857960246640723  0.5127700726970800  0.4316892199151629   T   T   T
  0.5745200983653064  0.4736408399823877  0.4739964912880634   T   T   T
  0.5726075278975448  0.5351581526272702  0.5307665359271805   T   T   T
  0.5831459050535106  0.5746776219486867  0.4885067181797040   T   T   T
  0.6563639163824283  0.5377491914339924  0.4719644606827955   T   T   T
  0.6458704853747202  0.4978301885831464  0.5138045596683913   T   T   T
  0.6444140447100517  0.5587522125440474  0.5719978732663867   T   T   T
  0.6959640908126142  0.5585060517295561  0.5427987151472137   T   T   T
  0.6547642874437484  0.5990900227676786  0.5299185569730472   T   T   T
  0.4300720106822473  0.4846601835944003  0.4445303897908267   T   T   T
  0.4419864625577374  0.5234874160613334  0.4025354393895794   T   T   T
  0.5174913257511428  0.4873297010854033  0.3908132396481363   T   T   T
  0.5055049231035333  0.4488062061739377  0.4331280746368965   T   T   T
  0.3837283276647398  0.4630892490195719  0.3649351548370918   T   T   T
  0.4316531016565000  0.4567069089419828  0.3793024818629804   T   T   T
  0.4497835855968350  0.4892418038550366  0.4136791820135037   T   T   T
  0.4993843926044694  0.4834367784899639  0.4225574307916048   T   T   T
  0.5185850672120480  0.5155363163659423  0.4570499031988082   T   T   T
  0.5685816805282736  0.5085640023901992  0.4639670044351568   T   T   T
  0.5894254461131514  0.5397377793720589  0.4983229275368318   T   T   T
  0.6395425635754537  0.5328233532799246  0.5043253306419495   T   T   T
  0.6598884907268409  0.5639079308428656  0.5390998955443811   T   T   T
  0.4546578563179636  0.4265122388876484  0.3641429586631050   T   T   T
 
  0.00000000E+00  0.00000000E+00  0.00000000E+00
  0.00000000E+00  0.00000000E+00  0.00000000E+00
  0.00000000E+00  0.00000000E+00  0.00000000E+00
  0.00000000E+00  0.00000000E+00  0.00000000E+00
  0.00000000E+00  0.00000000E+00  0.00000000E+00
  0.00000000E+00  0.00000000E+00  0.00000000E+00
  0.00000000E+00  0.00000000E+00  0.00000000E+00
  0.00000000E+00  0.00000000E+00  0.00000000E+00
  0.00000000E+00  0.00000000E+00  0.00000000E+00
  0.00000000E+00  0.00000000E+00  0.00000000E+00
  0.00000000E+00  0.00000000E+00  0.00000000E+00
  0.00000000E+00  0.00000000E+00  0.00000000E+00
  0.00000000E+00  0.00000000E+00  0.00000000E+00
  0.00000000E+00  0.00000000E+00  0.00000000E+00
  0.00000000E+00  0.00000000E+00  0.00000000E+00
  0.00000000E+00  0.00000000E+00  0.00000000E+00
  0.00000000E+00  0.00000000E+00  0.00000000E+00
  0.00000000E+00  0.00000000E+00  0.00000000E+00
  0.00000000E+00  0.00000000E+00  0.00000000E+00
  0.00000000E+00  0.00000000E+00  0.00000000E+00
  0.00000000E+00  0.00000000E+00  0.00000000E+00
  0.00000000E+00  0.00000000E+00  0.00000000E+00
  0.00000000E+00  0.00000000E+00  0.00000000E+00
  0.00000000E+00  0.00000000E+00  0.00000000E+00
  0.00000000E+00  0.00000000E+00  0.00000000E+00
  0.00000000E+00  0.00000000E+00  0.00000000E+00
  0.00000000E+00  0.00000000E+00  0.00000000E+00
  0.00000000E+00  0.00000000E+00  0.00000000E+00
