POSCAR                                  
   1.00000000000000     
    19.6214000000000013    0.0000000000000000    0.0000000000000000
     0.0000000000000000   20.9575999999999993    0.0000000000000000
     0.0000000000000000    0.0000000000000000   50.0000000000000000
   O    Zn   H    C 
   148   144    21     9
Selective dynamics
Direct
  0.3894599999999997  0.0725600000000028  0.0384699999999967   F   F   F
  0.3894599999999997  0.5725600000000028  0.0384699999999967   F   F   F
  0.8894599999999997  0.0725600000000028  0.0384699999999967   F   F   F
  0.8894599999999997  0.5725600000000028  0.0384699999999967   F   F   F
  0.3894599999999997  0.3225600000000028  0.0384699999999967   F   F   F
  0.3894599999999997  0.8225600000000028  0.0384699999999967   F   F   F
  0.8894599999999997  0.3225600000000028  0.0384699999999967   F   F   F
  0.8894599999999997  0.8225600000000028  0.0384699999999967   F   F   F
  0.2227900000000034  0.0725600000000028  0.0384699999999967   F   F   F
  0.2227900000000034  0.5725600000000028  0.0384699999999967   F   F   F
  0.7227900000000034  0.0725600000000028  0.0384699999999967   F   F   F
  0.7227900000000034  0.5725600000000028  0.0384699999999967   F   F   F
  0.2227900000000034  0.3225600000000028  0.0384699999999967   F   F   F
  0.2227900000000034  0.8225600000000028  0.0384699999999967   F   F   F
  0.7227900000000034  0.3225600000000028  0.0384699999999967   F   F   F
  0.7227900000000034  0.8225600000000028  0.0384699999999967   F   F   F
  0.0561199999999999  0.0725600000000028  0.0384699999999967   F   F   F
  0.0561199999999999  0.5725600000000028  0.0384699999999967   F   F   F
  0.5561199999999999  0.0725600000000028  0.0384699999999967   F   F   F
  0.5561199999999999  0.5725600000000028  0.0384699999999967   F   F   F
  0.0561199999999999  0.3225600000000028  0.0384699999999967   F   F   F
  0.0561199999999999  0.8225600000000028  0.0384699999999967   F   F   F
  0.5561199999999999  0.3225600000000028  0.0384699999999967   F   F   F
  0.5561199999999999  0.8225600000000028  0.0384699999999967   F   F   F
  0.4727900000000034  0.1975600000000028  0.0573499999999996   F   F   F
  0.4727900000000034  0.6975600000000028  0.0573499999999996   F   F   F
  0.9727900000000034  0.1975600000000028  0.0573499999999996   F   F   F
  0.9727900000000034  0.6975600000000028  0.0573499999999996   F   F   F
  0.4727900000000034  0.4475600000000028  0.0573499999999996   F   F   F
  0.4727900000000034  0.9475600000000028  0.0573499999999996   F   F   F
  0.9727900000000034  0.4475600000000028  0.0573499999999996   F   F   F
  0.9727900000000034  0.9475600000000028  0.0573499999999996   F   F   F
  0.3061199999999999  0.1975600000000028  0.0573499999999996   F   F   F
  0.3061199999999999  0.6975600000000028  0.0573499999999996   F   F   F
  0.8061199999999999  0.1975600000000028  0.0573499999999996   F   F   F
  0.8061199999999999  0.6975600000000028  0.0573499999999996   F   F   F
  0.3061199999999999  0.4475600000000028  0.0573499999999996   F   F   F
  0.3061199999999999  0.9475600000000028  0.0573499999999996   F   F   F
  0.8061199999999999  0.4475600000000028  0.0573499999999996   F   F   F
  0.8061199999999999  0.9475600000000028  0.0573499999999996   F   F   F
  0.1394499999999965  0.1975600000000028  0.0573499999999996   F   F   F
  0.1394499999999965  0.6975600000000028  0.0573499999999996   F   F   F
  0.6394499999999965  0.1975600000000028  0.0573499999999996   F   F   F
  0.6394499999999965  0.6975600000000028  0.0573499999999996   F   F   F
  0.1394499999999965  0.4475600000000028  0.0573499999999996   F   F   F
  0.1394499999999965  0.9475600000000028  0.0573499999999996   F   F   F
  0.6394499999999965  0.4475600000000028  0.0573499999999996   F   F   F
  0.6394499999999965  0.9475600000000028  0.0573499999999996   F   F   F
  0.4732399999999970  0.0701699999999974  0.0959199999999996   F   F   F
  0.4733200000000011  0.5701699999999974  0.0958800000000011   F   F   F
  0.9719300000000004  0.0702500000000015  0.0959999999999965   F   F   F
  0.9722200000000001  0.5702399999999983  0.0959700000000012   F   F   F
  0.4733400000000003  0.3201899999999966  0.0959199999999996   F   F   F
  0.4732500000000002  0.8200500000000019  0.0959399999999988   F   F   F
  0.9719499999999996  0.3202100000000030  0.0959999999999965   F   F   F
  0.9721199999999968  0.8202300000000022  0.0959999999999965   F   F   F
  0.3052800000000033  0.0702500000000015  0.0959999999999965   F   F   F
  0.3053299999999979  0.5702100000000030  0.0959399999999988   F   F   F
  0.8064899999999966  0.0701499999999982  0.0959300000000027   F   F   F
  0.8067300000000017  0.5701800000000006  0.0959000000000003   F   F   F
  0.3053499999999971  0.3202100000000030  0.0959900000000005   F   F   F
  0.3054199999999980  0.8201800000000006  0.0960099999999997   F   F   F
  0.8065799999999967  0.3201600000000013  0.0959300000000027   F   F   F
  0.8066299999999984  0.8201699999999974  0.0959199999999996   F   F   F
  0.1398999999999972  0.0701800000000006  0.0959199999999996   F   F   F
  0.1400000000000006  0.5701099999999997  0.0959100000000035   F   F   F
  0.6385300000000029  0.0702399999999983  0.0960099999999997   F   F   F
  0.6385300000000029  0.5701899999999966  0.0960400000000021   F   F   F
  0.1398999999999972  0.3201299999999989  0.0959199999999996   F   F   F
  0.1399899999999974  0.8201499999999982  0.0959100000000035   F   F   F
  0.6386699999999976  0.3202900000000000  0.0960099999999997   F   F   F
  0.6385199999999998  0.8201499999999982  0.0960200000000029   F   F   F
  0.3892900000000026  0.1952500000000015  0.1134800000000027   F   F   F
  0.3894299999999973  0.6950599999999980  0.1136699999999990   F   F   F
  0.8889199999999988  0.1951400000000021  0.1142800000000008   F   F   F
  0.8890999999999991  0.6951800000000006  0.1141999999999967   F   F   F
  0.3894499999999965  0.4451400000000021  0.1134600000000034   F   F   F
  0.3892799999999994  0.9451899999999966  0.1135000000000019   F   F   F
  0.8890499999999975  0.4450999999999965  0.1142699999999977   F   F   F
  0.8890099999999990  0.9451200000000028  0.1142600000000016   F   F   F
  0.2223299999999995  0.1951499999999982  0.1142800000000008   F   F   F
  0.2224000000000004  0.6950799999999973  0.1142699999999977   F   F   F
  0.7225499999999982  0.1952399999999983  0.1135000000000019   F   F   F
  0.7226100000000031  0.6952700000000007  0.1133499999999970   F   F   F
  0.2224199999999996  0.4450700000000012  0.1142600000000016   F   F   F
  0.2223200000000034  0.9451699999999974  0.1142800000000008   F   F   F
  0.7226500000000016  0.4452199999999991  0.1135599999999997   F   F   F
  0.7225499999999982  0.9451400000000021  0.1134800000000027   F   F   F
  0.0559099999999972  0.1952199999999991  0.1134800000000027   F   F   F
  0.0560600000000022  0.6951899999999966  0.1135200000000012   F   F   F
  0.5556300000000007  0.1951800000000006  0.1143199999999993   F   F   F
  0.5556399999999968  0.6949899999999971  0.1144299999999987   F   F   F
  0.0559999999999974  0.4451400000000021  0.1135099999999980   F   F   F
  0.0559799999999981  0.9452300000000022  0.1135000000000019   F   F   F
  0.5557999999999979  0.4452100000000030  0.1143700000000010   F   F   F
  0.5555999999999983  0.9450100000000035  0.1143300000000025   F   F   F
  0.3888699999999972  0.0703000000000031  0.1514999999999986   F   F   F
  0.3888299999999987  0.5700000000000003  0.1513500000000008   F   F   F
  0.8883200000000002  0.0698999999999970  0.1531200000000013   F   F   F
  0.8889500000000012  0.5699899999999971  0.1529799999999994   F   F   F
  0.3890400000000014  0.3203499999999977  0.1515199999999979   F   F   F
  0.3891899999999993  0.8201299999999989  0.1515800000000027   F   F   F
  0.8883200000000002  0.3199100000000001  0.1531499999999966   F   F   F
  0.8885599999999982  0.8199499999999986  0.1530800000000028   F   F   F
  0.2216400000000007  0.0699499999999986  0.1531299999999973   F   F   F
  0.2217699999999994  0.5697899999999976  0.1531000000000020   F   F   F
  0.7221699999999984  0.0701200000000028  0.1515100000000018   F   F   F
  0.7228599999999972  0.5703499999999977  0.1514000000000024   F   F   F
  0.2216799999999992  0.3198999999999970  0.1531200000000013   F   F   F
  0.2217100000000016  0.8199899999999971  0.1531099999999981   F   F   F
  0.7221600000000024  0.3203800000000001  0.1515500000000003   F   F   F
  0.7223200000000034  0.8201600000000013  0.1515199999999979   F   F   F
  0.0555200000000013  0.0702500000000015  0.1515100000000018   F   F   F
  0.0558199999999971  0.5701800000000006  0.1515399999999971   F   F   F
  0.5549699999999973  0.0698200000000000  0.1531499999999966   F   F   F
  0.5548599999999979  0.5697499999999991  0.1533000000000015   F   F   F
  0.0555799999999991  0.3201899999999966  0.1515300000000011   F   F   F
  0.0557099999999977  0.8201999999999998  0.1515399999999971   F   F   F
  0.5550799999999967  0.3200799999999973  0.1531700000000029   F   F   F
  0.5549600000000012  0.8196399999999997  0.1532399999999967   F   F   F
  0.3052800000000033  0.1959599999999995  0.1714600000000033   F   F   F
  0.3052500000000009  0.6961399999999998  0.1713900000000024   F   F   F
  0.8043100000000010  0.1971500000000006  0.1706199999999995   F   F   F
  0.8046700000000016  0.6973800000000026  0.1704399999999993   F   F   F
  0.3054199999999980  0.4459599999999995  0.1714399999999969   F   F   F
  0.3053499999999971  0.9459799999999987  0.1714300000000009   F   F   F
  0.8044799999999981  0.4472000000000023  0.1706900000000005   F   F   F
  0.8043899999999979  0.9471100000000021  0.1705899999999971   F   F   F
  0.1376700000000000  0.1970900000000029  0.1706500000000020   F   F   F
  0.1378300000000010  0.6970999999999989  0.1706799999999973   F   F   F
  0.6386200000000031  0.1957700000000031  0.1714699999999993   F   F   F
  0.6389500000000012  0.6958699999999993  0.1713999999999984   F   F   F
  0.1378600000000034  0.4470600000000005  0.1706599999999980   F   F   F
  0.1377600000000001  0.9471399999999974  0.1706500000000020   F   F   F
  0.6387399999999985  0.4461999999999975  0.1717299999999966   F   F   F
  0.6385900000000007  0.9457900000000024  0.1714800000000025   F   F   F
  0.4710600000000014  0.1970999999999989  0.1706500000000020   F   F   F
  0.4712000000000032  0.6965399999999988  0.1711400000000012   F   F   F
  0.9718900000000019  0.1959200000000010  0.1714699999999993   F   F   F
  0.9720900000000015  0.6959400000000002  0.1714899999999986   F   F   F
  0.4712800000000001  0.4472000000000023  0.1707600000000014   F   F   F
  0.4710800000000006  0.9470999999999989  0.1706700000000012   F   F   F
  0.9719899999999981  0.4458899999999986  0.1715099999999978   F   F   F
  0.9720000000000013  0.9459299999999971  0.1714699999999993   F   F   F
  0.4485680036303760  0.3401199657053500  0.2040233252767355   T   T   T
  0.6777666756521086  0.5700570872098264  0.2045746680469740   T   T   T
  0.0589906020582351  0.8062369235929402  0.2008495023599729   T   T   T
  0.6403200664277114  0.6650451564094926  0.2233632872024189   T   T   T
  0.3894599999999997  0.1680199999999985  0.0384699999999967   F   F   F
  0.3894599999999997  0.6680199999999985  0.0384699999999967   F   F   F
  0.8894599999999997  0.1680199999999985  0.0384699999999967   F   F   F
  0.8894599999999997  0.6680199999999985  0.0384699999999967   F   F   F
  0.3894599999999997  0.4180199999999985  0.0384699999999967   F   F   F
  0.3894599999999997  0.9180199999999985  0.0384699999999967   F   F   F
  0.8894599999999997  0.4180199999999985  0.0384699999999967   F   F   F
  0.8894599999999997  0.9180199999999985  0.0384699999999967   F   F   F
  0.2227900000000034  0.1680199999999985  0.0384699999999967   F   F   F
  0.2227900000000034  0.6680199999999985  0.0384699999999967   F   F   F
  0.7227900000000034  0.1680199999999985  0.0384699999999967   F   F   F
  0.7227900000000034  0.6680199999999985  0.0384699999999967   F   F   F
  0.2227900000000034  0.4180199999999985  0.0384699999999967   F   F   F
  0.2227900000000034  0.9180199999999985  0.0384699999999967   F   F   F
  0.7227900000000034  0.4180199999999985  0.0384699999999967   F   F   F
  0.7227900000000034  0.9180199999999985  0.0384699999999967   F   F   F
  0.0561199999999999  0.1680199999999985  0.0384699999999967   F   F   F
  0.0561199999999999  0.6680199999999985  0.0384699999999967   F   F   F
  0.5561199999999999  0.1680199999999985  0.0384699999999967   F   F   F
  0.5561199999999999  0.6680199999999985  0.0384699999999967   F   F   F
  0.0561199999999999  0.4180199999999985  0.0384699999999967   F   F   F
  0.0561199999999999  0.9180199999999985  0.0384699999999967   F   F   F
  0.5561199999999999  0.4180199999999985  0.0384699999999967   F   F   F
  0.5561199999999999  0.9180199999999985  0.0384699999999967   F   F   F
  0.4727900000000034  0.0430199999999985  0.0573499999999996   F   F   F
  0.4727900000000034  0.5430199999999985  0.0573499999999996   F   F   F
  0.9727900000000034  0.0430199999999985  0.0573499999999996   F   F   F
  0.9727900000000034  0.5430199999999985  0.0573499999999996   F   F   F
  0.4727900000000034  0.2930199999999985  0.0573499999999996   F   F   F
  0.4727900000000034  0.7930199999999985  0.0573499999999996   F   F   F
  0.9727900000000034  0.2930199999999985  0.0573499999999996   F   F   F
  0.9727900000000034  0.7930199999999985  0.0573499999999996   F   F   F
  0.3061199999999999  0.0430199999999985  0.0573499999999996   F   F   F
  0.3061199999999999  0.5430199999999985  0.0573499999999996   F   F   F
  0.8061199999999999  0.0430199999999985  0.0573499999999996   F   F   F
  0.8061199999999999  0.5430199999999985  0.0573499999999996   F   F   F
  0.3061199999999999  0.2930199999999985  0.0573499999999996   F   F   F
  0.3061199999999999  0.7930199999999985  0.0573499999999996   F   F   F
  0.8061199999999999  0.2930199999999985  0.0573499999999996   F   F   F
  0.8061199999999999  0.7930199999999985  0.0573499999999996   F   F   F
  0.1394499999999965  0.0430199999999985  0.0573499999999996   F   F   F
  0.1394499999999965  0.5430199999999985  0.0573499999999996   F   F   F
  0.6394499999999965  0.0430199999999985  0.0573499999999996   F   F   F
  0.6394499999999965  0.5430199999999985  0.0573499999999996   F   F   F
  0.1394499999999965  0.2930199999999985  0.0573499999999996   F   F   F
  0.1394499999999965  0.7930199999999985  0.0573499999999996   F   F   F
  0.6394499999999965  0.2930199999999985  0.0573499999999996   F   F   F
  0.6394499999999965  0.7930199999999985  0.0573499999999996   F   F   F
  0.4729799999999997  0.1644999999999968  0.0953900000000019   F   F   F
  0.4729600000000005  0.6645299999999992  0.0954300000000003   F   F   F
  0.9720200000000006  0.1646599999999978  0.0952899999999985   F   F   F
  0.9722799999999978  0.6646700000000010  0.0952800000000025   F   F   F
  0.4731499999999969  0.4145499999999984  0.0953999999999979   F   F   F
  0.4729299999999981  0.9143800000000013  0.0953999999999979   F   F   F
  0.9722000000000008  0.4146199999999993  0.0952800000000025   F   F   F
  0.9721400000000031  0.9146500000000017  0.0953000000000017   F   F   F
  0.3053999999999988  0.1646599999999978  0.0952899999999985   F   F   F
  0.3056500000000000  0.6646399999999986  0.0953700000000026   F   F   F
  0.8062600000000018  0.1644900000000007  0.0953900000000019   F   F   F
  0.8063999999999965  0.6645299999999992  0.0953500000000034   F   F   F
  0.3055400000000006  0.4146500000000017  0.0953000000000017   F   F   F
  0.3054100000000020  0.9145899999999969  0.0953000000000017   F   F   F
  0.8063399999999987  0.4144900000000007  0.0953900000000019   F   F   F
  0.8063100000000034  0.9145099999999999  0.0953799999999987   F   F   F
  0.1396500000000032  0.1645200000000031  0.0953900000000019   F   F   F
  0.1397699999999986  0.6644599999999983  0.0953999999999979   F   F   F
  0.6386200000000031  0.1646399999999986  0.0952899999999985   F   F   F
  0.6384899999999973  0.6646500000000017  0.0953000000000017   F   F   F
  0.1397600000000025  0.4144900000000007  0.0953900000000019   F   F   F
  0.1396900000000016  0.9144599999999983  0.0953900000000019   F   F   F
  0.6387300000000025  0.4147299999999987  0.0953099999999978   F   F   F
  0.6386099999999999  0.9145699999999977  0.0952899999999985   F   F   F
  0.3894200000000012  0.0405299999999968  0.1140100000000004   F   F   F
  0.3894599999999997  0.5405799999999985  0.1139799999999980   F   F   F
  0.8891899999999993  0.0406899999999979  0.1150000000000020   F   F   F
  0.8894700000000029  0.5406699999999987  0.1148999999999987   F   F   F
  0.3895199999999974  0.2906400000000033  0.1140199999999965   F   F   F
  0.3894900000000021  0.7903799999999990  0.1141099999999966   F   F   F
  0.8892499999999970  0.2907000000000011  0.1150200000000012   F   F   F
  0.8893399999999971  0.7907599999999988  0.1149800000000027   F   F   F
  0.2225400000000022  0.0407200000000003  0.1150200000000012   F   F   F
  0.2227099999999993  0.5406899999999979  0.1150299999999973   F   F   F
  0.7226599999999976  0.0405000000000015  0.1139900000000011   F   F   F
  0.7228700000000003  0.5405900000000017  0.1138699999999986   F   F   F
  0.2225899999999967  0.2907399999999996  0.1150200000000012   F   F   F
  0.2226500000000016  0.7906100000000009  0.1150299999999973   F   F   F
  0.7227999999999994  0.2906100000000009  0.1140199999999965   F   F   F
  0.7227900000000034  0.7906499999999994  0.1139799999999980   F   F   F
  0.0561199999999999  0.0406100000000009  0.1140100000000004   F   F   F
  0.0563100000000034  0.5405299999999968  0.1140400000000028   F   F   F
  0.5557999999999979  0.0405799999999985  0.1150400000000005   F   F   F
  0.5556500000000000  0.5408499999999989  0.1151300000000006   F   F   F
  0.0561399999999992  0.2905999999999977  0.1140199999999965   F   F   F
  0.0562699999999978  0.7905500000000032  0.1140400000000028   F   F   F
  0.5558800000000019  0.2907799999999980  0.1150400000000005   F   F   F
  0.5557799999999986  0.7906100000000009  0.1151100000000014   F   F   F
  0.3843000000000032  0.1652300000000011  0.1510800000000003   F   F   F
  0.3845900000000029  0.6649000000000029  0.1514000000000024   F   F   F
  0.8915300000000030  0.1651400000000010  0.1521600000000021   F   F   F
  0.8918699999999973  0.6652899999999988  0.1520500000000027   F   F   F
  0.3845499999999973  0.4154399999999967  0.1511100000000027   F   F   F
  0.3844399999999979  0.9149999999999991  0.1511199999999988   F   F   F
  0.8917199999999994  0.4151299999999978  0.1521299999999997   F   F   F
  0.8916299999999993  0.9152199999999979  0.1521400000000028   F   F   F
  0.2248599999999996  0.1652100000000019  0.1521699999999981   F   F   F
  0.2250999999999976  0.6650500000000008  0.1521800000000013   F   F   F
  0.7176400000000029  0.1650300000000016  0.1510699999999972   F   F   F
  0.7179900000000004  0.6654499999999999  0.1509000000000000   F   F   F
  0.2250700000000023  0.4151799999999994  0.1521600000000021   F   F   F
  0.2249300000000005  0.9151799999999994  0.1521600000000021   F   F   F
  0.7176299999999998  0.4153200000000012  0.1511500000000012   F   F   F
  0.7176199999999966  0.9151299999999978  0.1510900000000035   F   F   F
  0.0509800000000027  0.1652100000000019  0.1510900000000035   F   F   F
  0.0512299999999968  0.6651499999999970  0.1511399999999981   F   F   F
  0.5581200000000024  0.1650300000000016  0.1521699999999981   F   F   F
  0.5578199999999995  0.6651200000000017  0.1523899999999969   F   F   F
  0.0511899999999983  0.4151900000000026  0.1511399999999981   F   F   F
  0.0511100000000013  0.9151400000000010  0.1510999999999996   F   F   F
  0.5582100000000025  0.4153999999999982  0.1522599999999983   F   F   F
  0.5580799999999968  0.9149200000000022  0.1522199999999998   F   F   F
  0.3061900000000009  0.0383700000000005  0.1715200000000010   F   F   F
  0.3063700000000011  0.5384799999999998  0.1717099999999974   F   F   F
  0.8040900000000022  0.0438299999999998  0.1725100000000026   F   F   F
  0.8049299999999988  0.5439599999999984  0.1722699999999975   F   F   F
  0.3062899999999971  0.2884499999999974  0.1715000000000018   F   F   F
  0.3062899999999971  0.7883799999999965  0.1715299999999971   F   F   F
  0.8040900000000022  0.2938600000000022  0.1724699999999970   F   F   F
  0.8043699999999987  0.7941300000000027  0.1724999999999994   F   F   F
  0.1374199999999988  0.0438699999999983  0.1725300000000018   F   F   F
  0.1377999999999986  0.5439000000000007  0.1725899999999996   F   F   F
  0.6394700000000029  0.0382099999999994  0.1715299999999971   F   F   F
  0.6398999999999972  0.5388599999999997  0.1711000000000027   F   F   F
  0.1375299999999982  0.2938499999999991  0.1725599999999972   F   F   F
  0.1376700000000000  0.7938699999999983  0.1725899999999996   F   F   F
  0.6394700000000029  0.2881199999999993  0.1714100000000016   F   F   F
  0.6396099999999976  0.7883599999999973  0.1715599999999995   F   F   F
  0.4706699999999984  0.0437700000000021  0.1725399999999979   F   F   F
  0.4701900000000023  0.5442099999999996  0.1729899999999986   F   F   F
  0.9728899999999996  0.0383599999999973  0.1715200000000010   F   F   F
  0.9732300000000009  0.5383300000000020  0.1715400000000002   F   F   F
  0.4707799999999978  0.2938699999999983  0.1725599999999972   F   F   F
  0.4707599999999985  0.7931999999999988  0.1727699999999999   F   F   F
  0.9729299999999981  0.2883599999999973  0.1715400000000002   F   F   F
  0.9730199999999982  0.7883599999999973  0.1715299999999971   F   F   F
  0.4580057745752632  0.3851101518664437  0.1991798870134447   T   T   T
  0.6416257050853282  0.6737843298763960  0.2034844442093681   T   T   T
  0.0574834480869693  0.8518152467546846  0.2050302027580589   T   T   T
  0.3950349715388955  0.6098601394610691  0.2040097655123819   T   T   T
  0.3773238225375631  0.6202628821606998  0.2379217901620716   T   T   T
  0.3481224649557396  0.5495209593336359  0.2220522540978752   T   T   T
  0.4624536621730500  0.5039223893817172  0.2197049626842620   T   T   T
  0.4561802865338768  0.5361281036519246  0.2518936827838956   T   T   T
  0.5923981884872257  0.5139278351963610  0.2328512644384350   T   T   T
  0.5837782600801983  0.5702959099118539  0.2592305318954120   T   T   T
  0.7093184386098065  0.5432903054339024  0.2563849825480834   T   T   T
  0.6898423662358407  0.6228667417760724  0.2661697767642131   T   T   T
  0.8064939673001494  0.6350052635145808  0.2585484571783161   T   T   T
  0.7761600235224830  0.6536858506819756  0.2262348697041063   T   T   T
  0.7975303245801363  0.5397071047677032  0.2123498405372896   T   T   T
  0.8273623363826985  0.5213903267815464  0.2439718168448781   T   T   T
  0.9243417886842791  0.6008738915357087  0.2402421375992045   T   T   T
  0.9270796587786636  0.5422994391771804  0.2148120755729764   T   T   T
  0.8968443929902702  0.6223403768827683  0.2077878992040218   T   T   T
  0.5119938748686961  0.6402605566401172  0.2325946110930656   T   T   T
  0.5273562487556732  0.5986303596297501  0.2033545300793428   T   T   T
  0.3910700503483661  0.5835399725167022  0.2231571747113566   T   T   T
  0.4577223759530352  0.5497119357498311  0.2306089609793698   T   T   T
  0.5206314555932604  0.5913600264296341  0.2253076496696342   T   T   T
  0.5862657761228955  0.5650539108052105  0.2373256175833890   T   T   T
  0.6534280060592736  0.5986842010585073  0.2269041444458700   T   T   T
  0.7086138655427259  0.5933126280399355  0.2495669351919822   T   T   T
  0.7800363138813278  0.6147935483548120  0.2409870524375814   T   T   T
  0.8248728823771578  0.5615538900126046  0.2297354011969373   T   T   T
  0.8969109670237206  0.5832694462768661  0.2225167854604368   T   T   T
 
  0.00000000E+00  0.00000000E+00  0.00000000E+00
  0.00000000E+00  0.00000000E+00  0.00000000E+00
  0.00000000E+00  0.00000000E+00  0.00000000E+00
  0.00000000E+00  0.00000000E+00  0.00000000E+00
  0.00000000E+00  0.00000000E+00  0.00000000E+00
  0.00000000E+00  0.00000000E+00  0.00000000E+00
  0.00000000E+00  0.00000000E+00  0.00000000E+00
  0.00000000E+00  0.00000000E+00  0.00000000E+00
  0.00000000E+00  0.00000000E+00  0.00000000E+00
  0.00000000E+00  0.00000000E+00  0.00000000E+00
  0.00000000E+00  0.00000000E+00  0.00000000E+00
  0.00000000E+00  0.00000000E+00  0.00000000E+00
  0.00000000E+00  0.00000000E+00  0.00000000E+00
  0.00000000E+00  0.00000000E+00  0.00000000E+00
  0.00000000E+00  0.00000000E+00  0.00000000E+00
  0.00000000E+00  0.00000000E+00  0.00000000E+00
  0.00000000E+00  0.00000000E+00  0.00000000E+00
  0.00000000E+00  0.00000000E+00  0.00000000E+00
  0.00000000E+00  0.00000000E+00  0.00000000E+00
  0.00000000E+00  0.00000000E+00  0.00000000E+00
  0.00000000E+00  0.00000000E+00  0.00000000E+00
  0.00000000E+00  0.00000000E+00  0.00000000E+00
  0.00000000E+00  0.00000000E+00  0.00000000E+00
  0.00000000E+00  0.00000000E+00  0.00000000E+00
  0.00000000E+00  0.00000000E+00  0.00000000E+00
  0.00000000E+00  0.00000000E+00  0.00000000E+00
  0.00000000E+00  0.00000000E+00  0.00000000E+00
  0.00000000E+00  0.00000000E+00  0.00000000E+00
  0.00000000E+00  0.00000000E+00  0.00000000E+00
  0.00000000E+00  0.00000000E+00  0.00000000E+00
  0.00000000E+00  0.00000000E+00  0.00000000E+00
  0.00000000E+00  0.00000000E+00  0.00000000E+00
  0.00000000E+00  0.00000000E+00  0.00000000E+00
  0.00000000E+00  0.00000000E+00  0.00000000E+00
  0.00000000E+00  0.00000000E+00  0.00000000E+00
  0.00000000E+00  0.00000000E+00  0.00000000E+00
  0.00000000E+00  0.00000000E+00  0.00000000E+00
  0.00000000E+00  0.00000000E+00  0.00000000E+00
  0.00000000E+00  0.00000000E+00  0.00000000E+00
  0.00000000E+00  0.00000000E+00  0.00000000E+00
  0.00000000E+00  0.00000000E+00  0.00000000E+00
  0.00000000E+00  0.00000000E+00  0.00000000E+00
  0.00000000E+00  0.00000000E+00  0.00000000E+00
  0.00000000E+00  0.00000000E+00  0.00000000E+00
  0.00000000E+00  0.00000000E+00  0.00000000E+00
  0.00000000E+00  0.00000000E+00  0.00000000E+00
  0.00000000E+00  0.00000000E+00  0.00000000E+00
  0.00000000E+00  0.00000000E+00  0.00000000E+00
  0.00000000E+00  0.00000000E+00  0.00000000E+00
  0.00000000E+00  0.00000000E+00  0.00000000E+00
  0.00000000E+00  0.00000000E+00  0.00000000E+00
  0.00000000E+00  0.00000000E+00  0.00000000E+00
  0.00000000E+00  0.00000000E+00  0.00000000E+00
  0.00000000E+00  0.00000000E+00  0.00000000E+00
  0.00000000E+00  0.00000000E+00  0.00000000E+00
  0.00000000E+00  0.00000000E+00  0.00000000E+00
  0.00000000E+00  0.00000000E+00  0.00000000E+00
  0.00000000E+00  0.00000000E+00  0.00000000E+00
  0.00000000E+00  0.00000000E+00  0.00000000E+00
  0.00000000E+00  0.00000000E+00  0.00000000E+00
  0.00000000E+00  0.00000000E+00  0.00000000E+00
  0.00000000E+00  0.00000000E+00  0.00000000E+00
  0.00000000E+00  0.00000000E+00  0.00000000E+00
  0.00000000E+00  0.00000000E+00  0.00000000E+00
  0.00000000E+00  0.00000000E+00  0.00000000E+00
  0.00000000E+00  0.00000000E+00  0.00000000E+00
  0.00000000E+00  0.00000000E+00  0.00000000E+00
  0.00000000E+00  0.00000000E+00  0.00000000E+00
  0.00000000E+00  0.00000000E+00  0.00000000E+00
  0.00000000E+00  0.00000000E+00  0.00000000E+00
  0.00000000E+00  0.00000000E+00  0.00000000E+00
  0.00000000E+00  0.00000000E+00  0.00000000E+00
  0.00000000E+00  0.00000000E+00  0.00000000E+00
  0.00000000E+00  0.00000000E+00  0.00000000E+00
  0.00000000E+00  0.00000000E+00  0.00000000E+00
  0.00000000E+00  0.00000000E+00  0.00000000E+00
  0.00000000E+00  0.00000000E+00  0.00000000E+00
  0.00000000E+00  0.00000000E+00  0.00000000E+00
  0.00000000E+00  0.00000000E+00  0.00000000E+00
  0.00000000E+00  0.00000000E+00  0.00000000E+00
  0.00000000E+00  0.00000000E+00  0.00000000E+00
  0.00000000E+00  0.00000000E+00  0.00000000E+00
  0.00000000E+00  0.00000000E+00  0.00000000E+00
  0.00000000E+00  0.00000000E+00  0.00000000E+00
  0.00000000E+00  0.00000000E+00  0.00000000E+00
  0.00000000E+00  0.00000000E+00  0.00000000E+00
  0.00000000E+00  0.00000000E+00  0.00000000E+00
  0.00000000E+00  0.00000000E+00  0.00000000E+00
  0.00000000E+00  0.00000000E+00  0.00000000E+00
  0.00000000E+00  0.00000000E+00  0.00000000E+00
  0.00000000E+00  0.00000000E+00  0.00000000E+00
  0.00000000E+00  0.00000000E+00  0.00000000E+00
  0.00000000E+00  0.00000000E+00  0.00000000E+00
  0.00000000E+00  0.00000000E+00  0.00000000E+00
  0.00000000E+00  0.00000000E+00  0.00000000E+00
  0.00000000E+00  0.00000000E+00  0.00000000E+00
  0.00000000E+00  0.00000000E+00  0.00000000E+00
  0.00000000E+00  0.00000000E+00  0.00000000E+00
  0.00000000E+00  0.00000000E+00  0.00000000E+00
  0.00000000E+00  0.00000000E+00  0.00000000E+00
  0.00000000E+00  0.00000000E+00  0.00000000E+00
  0.00000000E+00  0.00000000E+00  0.00000000E+00
  0.00000000E+00  0.00000000E+00  0.00000000E+00
  0.00000000E+00  0.00000000E+00  0.00000000E+00
  0.00000000E+00  0.00000000E+00  0.00000000E+00
  0.00000000E+00  0.00000000E+00  0.00000000E+00
  0.00000000E+00  0.00000000E+00  0.00000000E+00
  0.00000000E+00  0.00000000E+00  0.00000000E+00
  0.00000000E+00  0.00000000E+00  0.00000000E+00
  0.00000000E+00  0.00000000E+00  0.00000000E+00
  0.00000000E+00  0.00000000E+00  0.00000000E+00
  0.00000000E+00  0.00000000E+00  0.00000000E+00
  0.00000000E+00  0.00000000E+00  0.00000000E+00
  0.00000000E+00  0.00000000E+00  0.00000000E+00
  0.00000000E+00  0.00000000E+00  0.00000000E+00
  0.00000000E+00  0.00000000E+00  0.00000000E+00
  0.00000000E+00  0.00000000E+00  0.00000000E+00
  0.00000000E+00  0.00000000E+00  0.00000000E+00
  0.00000000E+00  0.00000000E+00  0.00000000E+00
  0.00000000E+00  0.00000000E+00  0.00000000E+00
  0.00000000E+00  0.00000000E+00  0.00000000E+00
  0.00000000E+00  0.00000000E+00  0.00000000E+00
  0.00000000E+00  0.00000000E+00  0.00000000E+00
  0.00000000E+00  0.00000000E+00  0.00000000E+00
  0.00000000E+00  0.00000000E+00  0.00000000E+00