POSCAR                                  
   1.00000000000000     
    20.0000000000000000    0.0000000000000000    0.0000000000000000
     0.0000000000000000   20.0000000000000000    0.0000000000000000
     0.0000000000000000    0.0000000000000000   20.0000000000000000
   Fe   O    H 
     1     2     1
Direct
  0.3951307381142912  0.5991327197410427  0.8545415812113967
  0.3915084435061190  0.5075125471509503  0.8570282894170499
  0.4534550420544866  0.4687634760796101  0.8575567076752459
  0.4346391072431123  0.4235762390053991  0.8590609898313021
 
  0.00000000E+00  0.00000000E+00  0.00000000E+00
  0.00000000E+00  0.00000000E+00  0.00000000E+00
  0.00000000E+00  0.00000000E+00  0.00000000E+00
  0.00000000E+00  0.00000000E+00  0.00000000E+00
