POSCAR
1.00
 20.000000000000      0.000000000000      0.000000000000
  0.000000000000     20.000000000000      0.000000000000
  0.000000000000      0.000000000000     20.000000000000
Fe    O    H    
1    2    1    
Direct
  0.398578743416     -0.393662838861     -0.145484019731
  0.384136461670      0.505197700881      0.856031708539
  0.449820596963      0.471180050380      0.858403038967
  0.442197528869      0.416270069577      0.859236840360