POSCAR                                  
   1.00000000000000     
    20.0000000000000000    0.0000000000000000    0.0000000000000000
     0.0000000000000000   20.0000000000000000    0.0000000000000000
     0.0000000000000000    0.0000000000000000   20.0000000000000000
   Fe   O    H 
     1     1     1
Direct
  0.4008633912923261  0.6042280452509098  0.8547595072096955
  0.3870474664896095  0.5170562544786255  0.8563209297380596
  0.4286357940000612  0.4918565102664614  0.8610307846232437
 
  0.00000000E+00  0.00000000E+00  0.00000000E+00
  0.00000000E+00  0.00000000E+00  0.00000000E+00
  0.00000000E+00  0.00000000E+00  0.00000000E+00
