POSCAR
1.00
 20.000000000000      0.000000000000      0.000000000000
  0.000000000000     20.000000000000      0.000000000000
  0.000000000000      0.000000000000     20.000000000000
Fe    O    H    
1    1    1    
Direct
  0.400243698182     -0.384871698089     -0.145505479439
  0.383989965293      0.512346669547      0.855964162237
  0.432312988307      0.485665838538      0.861652538773